(set-logic HORN)
(declare-fun even (Int) Int)
(declare-fun mydiv (Int Int) Int)
(declare-fun Q_start (Int Int Int Int Int Int Int Int Int Int Int Int Int Int Int Int Int Int Int Int Int Int Int Int) Bool)
(declare-fun Q_exit (Int Int Int Int Int Int Int Int Int Int Int Int Int Int Int Int Int Int Int Int Int Int Int Int) Bool)
(declare-fun Q_n0 (Int Int Int Int Int Int Int Int Int Int Int Int Int Int Int Int Int Int Int Int Int Int Int Int) Bool)
(declare-fun Q_n1 (Int Int Int Int Int Int Int Int Int Int Int Int Int Int Int Int Int Int Int Int Int Int Int Int) Bool)
(declare-fun Q_n10 (Int Int Int Int Int Int Int Int Int Int Int Int Int Int Int Int Int Int Int Int Int Int Int Int) Bool)
(declare-fun Q_n10_1_b (Int Int Int Int Int Int Int Int Int Int Int Int Int Int Int Int Int Int Int Int Int Int Int Int) Bool)
(declare-fun Q_n10_2_b (Int Int Int Int Int Int Int Int Int Int Int Int Int Int Int Int Int Int Int Int Int Int Int Int) Bool)
(declare-fun Q_n10_3_b (Int Int Int Int Int Int Int Int Int Int Int Int Int Int Int Int Int Int Int Int Int Int Int Int) Bool)
(declare-fun Q_n10_4_b (Int Int Int Int Int Int Int Int Int Int Int Int Int Int Int Int Int Int Int Int Int Int Int Int) Bool)
(declare-fun Q_n10_5_b (Int Int Int Int Int Int Int Int Int Int Int Int Int Int Int Int Int Int Int Int Int Int Int Int) Bool)
(declare-fun Q_n10_b (Int Int Int Int Int Int Int Int Int Int Int Int Int Int Int Int Int Int Int Int Int Int Int Int) Bool)
(declare-fun Q_n2 (Int Int Int Int Int Int Int Int Int Int Int Int Int Int Int Int Int Int Int Int Int Int Int Int) Bool)
(declare-fun Q_n3 (Int Int Int Int Int Int Int Int Int Int Int Int Int Int Int Int Int Int Int Int Int Int Int Int) Bool)
(declare-fun Q_n4 (Int Int Int Int Int Int Int Int Int Int Int Int Int Int Int Int Int Int Int Int Int Int Int Int) Bool)
(declare-fun Q_n5 (Int Int Int Int Int Int Int Int Int Int Int Int Int Int Int Int Int Int Int Int Int Int Int Int) Bool)
(declare-fun Q_n6 (Int Int Int Int Int Int Int Int Int Int Int Int Int Int Int Int Int Int Int Int Int Int Int Int) Bool)
(declare-fun Q_n6_1_a (Int Int Int Int Int Int Int Int Int Int Int Int Int Int Int Int Int Int Int Int Int Int Int Int) Bool)
(declare-fun Q_n6_2_a (Int Int Int Int Int Int Int Int Int Int Int Int Int Int Int Int Int Int Int Int Int Int Int Int) Bool)
(declare-fun Q_n6_3_a (Int Int Int Int Int Int Int Int Int Int Int Int Int Int Int Int Int Int Int Int Int Int Int Int) Bool)
(declare-fun Q_n6_4_a (Int Int Int Int Int Int Int Int Int Int Int Int Int Int Int Int Int Int Int Int Int Int Int Int) Bool)
(declare-fun Q_n6_5_a (Int Int Int Int Int Int Int Int Int Int Int Int Int Int Int Int Int Int Int Int Int Int Int Int) Bool)
(declare-fun Q_n6_6_a (Int Int Int Int Int Int Int Int Int Int Int Int Int Int Int Int Int Int Int Int Int Int Int Int) Bool)
(declare-fun Q_n6_7_a (Int Int Int Int Int Int Int Int Int Int Int Int Int Int Int Int Int Int Int Int Int Int Int Int) Bool)
(declare-fun Q_n6_a (Int Int Int Int Int Int Int Int Int Int Int Int Int Int Int Int Int Int Int Int Int Int Int Int) Bool)
(declare-fun Q_n7 (Int Int Int Int Int Int Int Int Int Int Int Int Int Int Int Int Int Int Int Int Int Int Int Int) Bool)
(declare-fun Q_n7_a (Int Int Int Int Int Int Int Int Int Int Int Int Int Int Int Int Int Int Int Int Int Int Int Int) Bool)
(declare-fun Q_n9 (Int Int Int Int Int Int Int Int Int Int Int Int Int Int Int Int Int Int Int Int Int Int Int Int) Bool)
(assert (forall ((ao Int) (aa Int) (ab Int) (am Int) (bo Int) (ba Int) (bb Int) (bm Int) (printvaro Int) (printvara Int) (printvarb Int) (printvarm Int) (prodo Int) (proda Int) (prodb Int) (prodm Int) (xo Int) (xa Int) (xb Int) (xm Int) (yo Int) (ya Int) (yb Int) (ym Int)) (=> (and (= ao aa) (= aa ab) (= ab am) (= bo ba) (= ba bb) (= bb bm) (= printvaro printvara) (= printvara printvarb) (= printvarb printvarm) (= prodo proda) (= proda prodb) (= prodb prodm) (= xo xa) (= xa xb) (= xb xm) (= yo ya) (= ya yb) (= yb ym)) (Q_start ao aa ab am bo ba bb bm printvaro printvara printvarb printvarm prodo proda prodb prodm xo xa xb xm yo ya yb ym))))
(assert (forall ((ao Int) (aa Int) (ab Int) (am Int) (bo Int) (ba Int) (bb Int) (bm Int) (printvaro Int) (printvara Int) (printvarb Int) (printvarm Int) (prodo Int) (proda Int) (prodb Int) (prodm Int) (xo Int) (xa Int) (xb Int) (xm Int) (yo Int) (ya Int) (yb Int) (ym Int) (xo1 Int) (xa1 Int) (xb1 Int) (xm1 Int)) (=> (and (= xm1 am) (= xb1 ab) (= xa1 aa) (= xo1 ao) (Q_n0 ao aa ab am bo ba bb bm printvaro printvara printvarb printvarm prodo proda prodb prodm xo xa xb xm yo ya yb ym)) (Q_n1 ao aa ab am bo ba bb bm printvaro printvara printvarb printvarm prodo proda prodb prodm xo1 xa1 xb1 xm1 yo ya yb ym))))
(assert (forall ((ao Int) (aa Int) (ab Int) (am Int) (bo Int) (ba Int) (bb Int) (bm Int) (printvaro Int) (printvara Int) (printvarb Int) (printvarm Int) (prodo Int) (proda Int) (prodb Int) (prodm Int) (xo Int) (xa Int) (xb Int) (xm Int) (yo Int) (ya Int) (yb Int) (ym Int) (yo1 Int) (ya1 Int) (yb1 Int) (ym1 Int)) (=> (and (= ym1 bm) (= yb1 bb) (= ya1 ba) (= yo1 bo) (Q_n1 ao aa ab am bo ba bb bm printvaro printvara printvarb printvarm prodo proda prodb prodm xo xa xb xm yo ya yb ym)) (Q_n2 ao aa ab am bo ba bb bm printvaro printvara printvarb printvarm prodo proda prodb prodm xo xa xb xm yo1 ya1 yb1 ym1))))
(assert (forall ((ao Int) (aa Int) (ab Int) (am Int) (bo Int) (ba Int) (bb Int) (bm Int) (printvaro Int) (printvara Int) (printvarb Int) (printvarm Int) (prodo Int) (proda Int) (prodb Int) (prodm Int) (xo Int) (xa Int) (xb Int) (xm Int) (yo Int) (ya Int) (yb Int) (ym Int)) (=> (Q_n10 ao aa ab am bo ba bb bm printvaro printvara printvarb printvarm prodo proda prodb prodm xo xa xb xm yo ya yb ym) (Q_n10_b ao aa ab am bo ba bb bm printvaro printvara printvarb printvarm prodo proda prodb prodm xo xa xb xm yo ya yb ym))))
(assert (forall ((ao Int) (aa Int) (ab Int) (am Int) (bo Int) (ba Int) (bb Int) (bm Int) (printvaro Int) (printvara Int) (printvarb Int) (printvarm Int) (prodo Int) (proda Int) (prodb Int) (prodm Int) (xo Int) (xa Int) (xb Int) (xm Int) (yo Int) (ya Int) (yb Int) (ym Int)) (=> (and (= (* am bm) prodm) (= (* ab bb) prodb) (Q_n10_1_b ao aa ab am bo ba bb bm printvaro printvara printvarb printvarm prodo proda prodb prodm xo xa xb xm yo ya yb ym)) (Q_n10_3_b ao aa ab am bo ba bb bm printvaro printvara printvarb printvarm prodo proda prodb prodm xo xa xb xm yo ya yb ym))))
(assert (forall ((ao Int) (aa Int) (ab Int) (am Int) (bo Int) (ba Int) (bb Int) (bm Int) (printvaro Int) (printvara Int) (printvarb Int) (printvarm Int) (prodo Int) (proda Int) (prodb Int) (prodm Int) (xo Int) (xa Int) (xb Int) (xm Int) (yo Int) (ya Int) (yb Int) (ym Int)) (=> (and (not (= (* am bm) prodm)) (not (= (* ab bb) prodb)) (Q_n10_2_b ao aa ab am bo ba bb bm printvaro printvara printvarb printvarm prodo proda prodb prodm xo xa xb xm yo ya yb ym)) (Q_n10_5_b ao aa ab am bo ba bb bm printvaro printvara printvarb printvarm prodo proda prodb prodm xo xa xb xm yo ya yb ym))))
(assert (forall ((ao Int) (aa Int) (ab Int) (am Int) (bo Int) (ba Int) (bb Int) (bm Int) (printvaro Int) (printvara Int) (printvarb Int) (printvarm Int) (prodo Int) (proda Int) (prodb Int) (prodm Int) (xo Int) (xa Int) (xb Int) (xm Int) (yo Int) (ya Int) (yb Int) (ym Int) (printvarb1 Int) (printvarm1 Int)) (=> (and (= printvarm1 1) (= printvarb1 1) (Q_n10_3_b ao aa ab am bo ba bb bm printvaro printvara printvarb printvarm prodo proda prodb prodm xo xa xb xm yo ya yb ym)) (Q_n10_4_b ao aa ab am bo ba bb bm printvaro printvara printvarb1 printvarm1 prodo proda prodb prodm xo xa xb xm yo ya yb ym))))
(assert (forall ((ao Int) (aa Int) (ab Int) (am Int) (bo Int) (ba Int) (bb Int) (bm Int) (printvaro Int) (printvara Int) (printvarb Int) (printvarm Int) (prodo Int) (proda Int) (prodb Int) (prodm Int) (xo Int) (xa Int) (xb Int) (xm Int) (yo Int) (ya Int) (yb Int) (ym Int)) (=> (Q_n10_4_b ao aa ab am bo ba bb bm printvaro printvara printvarb printvarm prodo proda prodb prodm xo xa xb xm yo ya yb ym) (Q_exit ao aa ab am bo ba bb bm printvaro printvara printvarb printvarm prodo proda prodb prodm xo xa xb xm yo ya yb ym))))
(assert (forall ((ao Int) (aa Int) (ab Int) (am Int) (bo Int) (ba Int) (bb Int) (bm Int) (printvaro Int) (printvara Int) (printvarb Int) (printvarm Int) (prodo Int) (proda Int) (prodb Int) (prodm Int) (xo Int) (xa Int) (xb Int) (xm Int) (yo Int) (ya Int) (yb Int) (ym Int) (printvarb1 Int) (printvarm1 Int)) (=> (and (= printvarm1 0) (= printvarb1 0) (Q_n10_5_b ao aa ab am bo ba bb bm printvaro printvara printvarb printvarm prodo proda prodb prodm xo xa xb xm yo ya yb ym)) (Q_n10_4_b ao aa ab am bo ba bb bm printvaro printvara printvarb1 printvarm1 prodo proda prodb prodm xo xa xb xm yo ya yb ym))))
(assert (forall ((ao Int) (aa Int) (ab Int) (am Int) (bo Int) (ba Int) (bb Int) (bm Int) (printvaro Int) (printvara Int) (printvarb Int) (printvarm Int) (prodo Int) (proda Int) (prodb Int) (prodm Int) (xo Int) (xa Int) (xb Int) (xm Int) (yo Int) (ya Int) (yb Int) (ym Int)) (=> (Q_n10_b ao aa ab am bo ba bb bm printvaro printvara printvarb printvarm prodo proda prodb prodm xo xa xb xm yo ya yb ym) (Q_n10_1_b ao aa ab am bo ba bb bm printvaro printvara printvarb printvarm prodo proda prodb prodm xo xa xb xm yo ya yb ym))))
(assert (forall ((ao Int) (aa Int) (ab Int) (am Int) (bo Int) (ba Int) (bb Int) (bm Int) (printvaro Int) (printvara Int) (printvarb Int) (printvarm Int) (prodo Int) (proda Int) (prodb Int) (prodm Int) (xo Int) (xa Int) (xb Int) (xm Int) (yo Int) (ya Int) (yb Int) (ym Int)) (=> (Q_n10_b ao aa ab am bo ba bb bm printvaro printvara printvarb printvarm prodo proda prodb prodm xo xa xb xm yo ya yb ym) (Q_n10_2_b ao aa ab am bo ba bb bm printvaro printvara printvarb printvarm prodo proda prodb prodm xo xa xb xm yo ya yb ym))))
(assert (forall ((ao Int) (aa Int) (ab Int) (am Int) (bo Int) (ba Int) (bb Int) (bm Int) (printvaro Int) (printvara Int) (printvarb Int) (printvarm Int) (prodo Int) (proda Int) (prodb Int) (prodm Int) (xo Int) (xa Int) (xb Int) (xm Int) (yo Int) (ya Int) (yb Int) (ym Int) (prodo1 Int) (proda1 Int) (prodb1 Int) (prodm1 Int)) (=> (and (= prodm1 0) (= prodb1 0) (= proda1 0) (= prodo1 0) (Q_n2 ao aa ab am bo ba bb bm printvaro printvara printvarb printvarm prodo proda prodb prodm xo xa xb xm yo ya yb ym)) (Q_n3 ao aa ab am bo ba bb bm printvaro printvara printvarb printvarm prodo1 proda1 prodb1 prodm1 xo xa xb xm yo ya yb ym))))
(assert (forall ((ao Int) (aa Int) (ab Int) (am Int) (bo Int) (ba Int) (bb Int) (bm Int) (printvaro Int) (printvara Int) (printvarb Int) (printvarm Int) (prodo Int) (proda Int) (prodb Int) (prodm Int) (xo Int) (xa Int) (xb Int) (xm Int) (yo Int) (ya Int) (yb Int) (ym Int)) (=> (Q_n3 ao aa ab am bo ba bb bm printvaro printvara printvarb printvarm prodo proda prodb prodm xo xa xb xm yo ya yb ym) (Q_n4 ao aa ab am bo ba bb bm printvaro printvara printvarb printvarm prodo proda prodb prodm xo xa xb xm yo ya yb ym))))
(assert (forall ((ao Int) (aa Int) (ab Int) (am Int) (bo Int) (ba Int) (bb Int) (bm Int) (printvaro Int) (printvara Int) (printvarb Int) (printvarm Int) (prodo Int) (proda Int) (prodb Int) (prodm Int) (xo Int) (xa Int) (xb Int) (xm Int) (yo Int) (ya Int) (yb Int) (ym Int)) (=> (Q_n3 ao aa ab am bo ba bb bm printvaro printvara printvarb printvarm prodo proda prodb prodm xo xa xb xm yo ya yb ym) (Q_n5 ao aa ab am bo ba bb bm printvaro printvara printvarb printvarm prodo proda prodb prodm xo xa xb xm yo ya yb ym))))
(assert (forall ((ao Int) (aa Int) (ab Int) (am Int) (bo Int) (ba Int) (bb Int) (bm Int) (printvaro Int) (printvara Int) (printvarb Int) (printvarm Int) (prodo Int) (proda Int) (prodb Int) (prodm Int) (xo Int) (xa Int) (xb Int) (xm Int) (yo Int) (ya Int) (yb Int) (ym Int)) (=> (and (> ym 0) (> yb 0) (> ya 0) (> yo 0) (Q_n4 ao aa ab am bo ba bb bm printvaro printvara printvarb printvarm prodo proda prodb prodm xo xa xb xm yo ya yb ym)) (Q_n6 ao aa ab am bo ba bb bm printvaro printvara printvarb printvarm prodo proda prodb prodm xo xa xb xm yo ya yb ym))))
(assert (forall ((ao Int) (aa Int) (ab Int) (am Int) (bo Int) (ba Int) (bb Int) (bm Int) (printvaro Int) (printvara Int) (printvarb Int) (printvarm Int) (prodo Int) (proda Int) (prodb Int) (prodm Int) (xo Int) (xa Int) (xb Int) (xm Int) (yo Int) (ya Int) (yb Int) (ym Int)) (=> (and (<= ym 0) (<= yb 0) (<= ya 0) (<= yo 0) (Q_n5 ao aa ab am bo ba bb bm printvaro printvara printvarb printvarm prodo proda prodb prodm xo xa xb xm yo ya yb ym)) (Q_n9 ao aa ab am bo ba bb bm printvaro printvara printvarb printvarm prodo proda prodb prodm xo xa xb xm yo ya yb ym))))
(assert (forall ((ao Int) (aa Int) (ab Int) (am Int) (bo Int) (ba Int) (bb Int) (bm Int) (printvaro Int) (printvara Int) (printvarb Int) (printvarm Int) (prodo Int) (proda Int) (prodb Int) (prodm Int) (xo Int) (xa Int) (xb Int) (xm Int) (yo Int) (ya Int) (yb Int) (ym Int)) (=> (Q_n6 ao aa ab am bo ba bb bm printvaro printvara printvarb printvarm prodo proda prodb prodm xo xa xb xm yo ya yb ym) (Q_n6_a ao aa ab am bo ba bb bm printvaro printvara printvarb printvarm prodo proda prodb prodm xo xa xb xm yo ya yb ym))))
(assert (forall ((ao Int) (aa Int) (ab Int) (am Int) (bo Int) (ba Int) (bb Int) (bm Int) (printvaro Int) (printvara Int) (printvarb Int) (printvarm Int) (prodo Int) (proda Int) (prodb Int) (prodm Int) (xo Int) (xa Int) (xb Int) (xm Int) (yo Int) (ya Int) (yb Int) (ym Int)) (=> (and (not (= (even ym) 0)) (not (= (even ya) 0)) (Q_n6_1_a ao aa ab am bo ba bb bm printvaro printvara printvarb printvarm prodo proda prodb prodm xo xa xb xm yo ya yb ym)) (Q_n6_3_a ao aa ab am bo ba bb bm printvaro printvara printvarb printvarm prodo proda prodb prodm xo xa xb xm yo ya yb ym))))
(assert (forall ((ao Int) (aa Int) (ab Int) (am Int) (bo Int) (ba Int) (bb Int) (bm Int) (printvaro Int) (printvara Int) (printvarb Int) (printvarm Int) (prodo Int) (proda Int) (prodb Int) (prodm Int) (xo Int) (xa Int) (xb Int) (xm Int) (yo Int) (ya Int) (yb Int) (ym Int)) (=> (and (= (even ym) 0) (= (even ya) 0) (Q_n6_2_a ao aa ab am bo ba bb bm printvaro printvara printvarb printvarm prodo proda prodb prodm xo xa xb xm yo ya yb ym)) (Q_n6_6_a ao aa ab am bo ba bb bm printvaro printvara printvarb printvarm prodo proda prodb prodm xo xa xb xm yo ya yb ym))))
(assert (forall ((ao Int) (aa Int) (ab Int) (am Int) (bo Int) (ba Int) (bb Int) (bm Int) (printvaro Int) (printvara Int) (printvarb Int) (printvarm Int) (prodo Int) (proda Int) (prodb Int) (prodm Int) (xo Int) (xa Int) (xb Int) (xm Int) (yo Int) (ya Int) (yb Int) (ym Int) (xa1 Int) (xm1 Int)) (=> (and (= xm1 (+ xm xm)) (= xa1 (+ xa xa)) (Q_n6_3_a ao aa ab am bo ba bb bm printvaro printvara printvarb printvarm prodo proda prodb prodm xo xa xb xm yo ya yb ym)) (Q_n6_4_a ao aa ab am bo ba bb bm printvaro printvara printvarb printvarm prodo proda prodb prodm xo xa1 xb xm1 yo ya yb ym))))
(assert (forall ((ao Int) (aa Int) (ab Int) (am Int) (bo Int) (ba Int) (bb Int) (bm Int) (printvaro Int) (printvara Int) (printvarb Int) (printvarm Int) (prodo Int) (proda Int) (prodb Int) (prodm Int) (xo Int) (xa Int) (xb Int) (xm Int) (yo Int) (ya Int) (yb Int) (ym Int) (ya1 Int) (ym1 Int)) (=> (and (= ym1 (mydiv ym 2)) (= ya1 (mydiv ya 2)) (Q_n6_4_a ao aa ab am bo ba bb bm printvaro printvara printvarb printvarm prodo proda prodb prodm xo xa xb xm yo ya yb ym)) (Q_n6_5_a ao aa ab am bo ba bb bm printvaro printvara printvarb printvarm prodo proda prodb prodm xo xa xb xm yo ya1 yb ym1))))
(assert (forall ((ao Int) (aa Int) (ab Int) (am Int) (bo Int) (ba Int) (bb Int) (bm Int) (printvaro Int) (printvara Int) (printvarb Int) (printvarm Int) (prodo Int) (proda Int) (prodb Int) (prodm Int) (xo Int) (xa Int) (xb Int) (xm Int) (yo Int) (ya Int) (yb Int) (ym Int)) (=> (Q_n6_5_a ao aa ab am bo ba bb bm printvaro printvara printvarb printvarm prodo proda prodb prodm xo xa xb xm yo ya yb ym) (Q_n7 ao aa ab am bo ba bb bm printvaro printvara printvarb printvarm prodo proda prodb prodm xo xa xb xm yo ya yb ym))))
(assert (forall ((ao Int) (aa Int) (ab Int) (am Int) (bo Int) (ba Int) (bb Int) (bm Int) (printvaro Int) (printvara Int) (printvarb Int) (printvarm Int) (prodo Int) (proda Int) (prodb Int) (prodm Int) (xo Int) (xa Int) (xb Int) (xm Int) (yo Int) (ya Int) (yb Int) (ym Int) (proda1 Int) (prodm1 Int)) (=> (and (= prodm1 (+ prodm xm)) (= proda1 (+ proda xa)) (Q_n6_6_a ao aa ab am bo ba bb bm printvaro printvara printvarb printvarm prodo proda prodb prodm xo xa xb xm yo ya yb ym)) (Q_n6_7_a ao aa ab am bo ba bb bm printvaro printvara printvarb printvarm prodo proda1 prodb prodm1 xo xa xb xm yo ya yb ym))))
(assert (forall ((ao Int) (aa Int) (ab Int) (am Int) (bo Int) (ba Int) (bb Int) (bm Int) (printvaro Int) (printvara Int) (printvarb Int) (printvarm Int) (prodo Int) (proda Int) (prodb Int) (prodm Int) (xo Int) (xa Int) (xb Int) (xm Int) (yo Int) (ya Int) (yb Int) (ym Int) (ya1 Int) (ym1 Int)) (=> (and (= ym1 (- ym 1)) (= ya1 (- ya 1)) (Q_n6_7_a ao aa ab am bo ba bb bm printvaro printvara printvarb printvarm prodo proda prodb prodm xo xa xb xm yo ya yb ym)) (Q_n6_5_a ao aa ab am bo ba bb bm printvaro printvara printvarb printvarm prodo proda prodb prodm xo xa xb xm yo ya1 yb ym1))))
(assert (forall ((ao Int) (aa Int) (ab Int) (am Int) (bo Int) (ba Int) (bb Int) (bm Int) (printvaro Int) (printvara Int) (printvarb Int) (printvarm Int) (prodo Int) (proda Int) (prodb Int) (prodm Int) (xo Int) (xa Int) (xb Int) (xm Int) (yo Int) (ya Int) (yb Int) (ym Int) (prodo1 Int) (prodb1 Int)) (=> (and (= prodb1 (+ prodb xb)) (= prodo1 (+ prodo xo)) (Q_n6_a ao aa ab am bo ba bb bm printvaro printvara printvarb printvarm prodo proda prodb prodm xo xa xb xm yo ya yb ym)) (Q_n6_1_a ao aa ab am bo ba bb bm printvaro printvara printvarb printvarm prodo1 proda prodb1 prodm xo xa xb xm yo ya yb ym))))
(assert (forall ((ao Int) (aa Int) (ab Int) (am Int) (bo Int) (ba Int) (bb Int) (bm Int) (printvaro Int) (printvara Int) (printvarb Int) (printvarm Int) (prodo Int) (proda Int) (prodb Int) (prodm Int) (xo Int) (xa Int) (xb Int) (xm Int) (yo Int) (ya Int) (yb Int) (ym Int) (prodo1 Int) (prodb1 Int)) (=> (and (= prodb1 (+ prodb xb)) (= prodo1 (+ prodo xo)) (Q_n6_a ao aa ab am bo ba bb bm printvaro printvara printvarb printvarm prodo proda prodb prodm xo xa xb xm yo ya yb ym)) (Q_n6_2_a ao aa ab am bo ba bb bm printvaro printvara printvarb printvarm prodo1 proda prodb1 prodm xo xa xb xm yo ya yb ym))))
(assert (forall ((ao Int) (aa Int) (ab Int) (am Int) (bo Int) (ba Int) (bb Int) (bm Int) (printvaro Int) (printvara Int) (printvarb Int) (printvarm Int) (prodo Int) (proda Int) (prodb Int) (prodm Int) (xo Int) (xa Int) (xb Int) (xm Int) (yo Int) (ya Int) (yb Int) (ym Int)) (=> (Q_n7 ao aa ab am bo ba bb bm printvaro printvara printvarb printvarm prodo proda prodb prodm xo xa xb xm yo ya yb ym) (Q_n7_a ao aa ab am bo ba bb bm printvaro printvara printvarb printvarm prodo proda prodb prodm xo xa xb xm yo ya yb ym))))
(assert (forall ((ao Int) (aa Int) (ab Int) (am Int) (bo Int) (ba Int) (bb Int) (bm Int) (printvaro Int) (printvara Int) (printvarb Int) (printvarm Int) (prodo Int) (proda Int) (prodb Int) (prodm Int) (xo Int) (xa Int) (xb Int) (xm Int) (yo Int) (ya Int) (yb Int) (ym Int) (yo1 Int) (yb1 Int)) (=> (and (= yb1 (- yb 1)) (= yo1 (- yo 1)) (Q_n7_a ao aa ab am bo ba bb bm printvaro printvara printvarb printvarm prodo proda prodb prodm xo xa xb xm yo ya yb ym)) (Q_n9 ao aa ab am bo ba bb bm printvaro printvara printvarb printvarm prodo proda prodb prodm xo xa xb xm yo1 ya yb1 ym))))
(assert (forall ((ao Int) (aa Int) (ab Int) (am Int) (bo Int) (ba Int) (bb Int) (bm Int) (printvaro Int) (printvara Int) (printvarb Int) (printvarm Int) (prodo Int) (proda Int) (prodb Int) (prodm Int) (xo Int) (xa Int) (xb Int) (xm Int) (yo Int) (ya Int) (yb Int) (ym Int) (printvaro1 Int) (printvara1 Int) (printvarb1 Int) (printvarm1 Int)) (=> (and (= printvarm1 prodm) (= printvarb1 prodb) (= printvara1 proda) (= printvaro1 prodo) (Q_n9 ao aa ab am bo ba bb bm printvaro printvara printvarb printvarm prodo proda prodb prodm xo xa xb xm yo ya yb ym)) (Q_n10 ao aa ab am bo ba bb bm printvaro1 printvara1 printvarb1 printvarm1 prodo proda prodb prodm xo xa xb xm yo ya yb ym))))
(assert (forall ((ao Int) (aa Int) (ab Int) (am Int) (bo Int) (ba Int) (bb Int) (bm Int) (printvaro Int) (printvara Int) (printvarb Int) (printvarm Int) (prodo Int) (proda Int) (prodb Int) (prodm Int) (xo Int) (xa Int) (xb Int) (xm Int) (yo Int) (ya Int) (yb Int) (ym Int)) (=> (Q_start ao aa ab am bo ba bb bm printvaro printvara printvarb printvarm prodo proda prodb prodm xo xa xb xm yo ya yb ym) (Q_n0 ao aa ab am bo ba bb bm printvaro printvara printvarb printvarm prodo proda prodb prodm xo xa xb xm yo ya yb ym))))
(assert (forall ((ao Int) (aa Int) (ab Int) (am Int) (bo Int) (ba Int) (bb Int) (bm Int) (printvaro Int) (printvara Int) (printvarb Int) (printvarm Int) (prodo Int) (proda Int) (prodb Int) (prodm Int) (xo Int) (xa Int) (xb Int) (xm Int) (yo Int) (ya Int) (yb Int) (ym Int)) (=> (Q_exit ao aa ab am bo ba bb bm printvaro printvara printvarb printvarm prodo proda prodb prodm xo xa xb xm yo ya yb ym) (and (and (or (= ao aa) (= am aa)) (or (= ao ab) (= am ab)) (or (not (= ao aa)) (not (= ao ab)) (= am ao))) (and (or (= bo ba) (= bm ba)) (or (= bo bb) (= bm bb)) (or (not (= bo ba)) (not (= bo bb)) (= bm bo))) (and (or (= printvaro printvara) (= printvarm printvara)) (or (= printvaro printvarb) (= printvarm printvarb)) (or (not (= printvaro printvara)) (not (= printvaro printvarb)) (= printvarm printvaro))) (and (or (= prodo proda) (= prodm proda)) (or (= prodo prodb) (= prodm prodb)) (or (not (= prodo proda)) (not (= prodo prodb)) (= prodm prodo))) (and (or (= xo xa) (= xm xa)) (or (= xo xb) (= xm xb)) (or (not (= xo xa)) (not (= xo xb)) (= xm xo))) (and (or (= yo ya) (= ym ya)) (or (= yo yb) (= ym yb)) (or (not (= yo ya)) (not (= yo yb)) (= ym yo)))))))
(assert (forall ((ao Int) (aa Int) (ab Int) (am Int) (bo Int) (ba Int) (bb Int) (bm Int) (printvaro Int) (printvara Int) (printvarb Int) (printvarm Int) (prodo Int) (proda Int) (prodb Int) (prodm Int) (xo Int) (xa Int) (xb Int) (xm Int) (yo Int) (ya Int) (yb Int) (ym Int)) (=> (Q_n7 ao aa ab am bo ba bb bm printvaro printvara printvarb printvarm prodo proda prodb prodm xo xa xb xm yo ya yb ym) (and (and (or (= ao aa) (= am aa)) (or (= ao ab) (= am ab)) (or (not (= ao aa)) (not (= ao ab)) (= am ao))) (and (or (= bo ba) (= bm ba)) (or (= bo bb) (= bm bb)) (or (not (= bo ba)) (not (= bo bb)) (= bm bo))) (and (or (= printvaro printvara) (= printvarm printvara)) (or (= printvaro printvarb) (= printvarm printvarb)) (or (not (= printvaro printvara)) (not (= printvaro printvarb)) (= printvarm printvaro))) (and (or (= prodo proda) (= prodm proda)) (or (= prodo prodb) (= prodm prodb)) (or (not (= prodo proda)) (not (= prodo prodb)) (= prodm prodo))) (and (or (= xo xa) (= xm xa)) (or (= xo xb) (= xm xb)) (or (not (= xo xa)) (not (= xo xb)) (= xm xo))) (and (or (= yo ya) (= ym ya)) (or (= yo yb) (= ym yb)) (or (not (= yo ya)) (not (= yo yb)) (= ym yo)))))))
(assert (forall ((ao Int) (aa Int) (ab Int) (am Int) (bo Int) (ba Int) (bb Int) (bm Int) (printvaro Int) (printvara Int) (printvarb Int) (printvarm Int) (prodo Int) (proda Int) (prodb Int) (prodm Int) (xo Int) (xa Int) (xb Int) (xm Int) (yo Int) (ya Int) (yb Int) (ym Int)) (=> (Q_n9 ao aa ab am bo ba bb bm printvaro printvara printvarb printvarm prodo proda prodb prodm xo xa xb xm yo ya yb ym) (and (and (or (= ao aa) (= am aa)) (or (= ao ab) (= am ab)) (or (not (= ao aa)) (not (= ao ab)) (= am ao))) (and (or (= bo ba) (= bm ba)) (or (= bo bb) (= bm bb)) (or (not (= bo ba)) (not (= bo bb)) (= bm bo))) (and (or (= printvaro printvara) (= printvarm printvara)) (or (= printvaro printvarb) (= printvarm printvarb)) (or (not (= printvaro printvara)) (not (= printvaro printvarb)) (= printvarm printvaro))) (and (or (= prodo proda) (= prodm proda)) (or (= prodo prodb) (= prodm prodb)) (or (not (= prodo proda)) (not (= prodo prodb)) (= prodm prodo))) (and (or (= xo xa) (= xm xa)) (or (= xo xb) (= xm xb)) (or (not (= xo xa)) (not (= xo xb)) (= xm xo))) (and (or (= yo ya) (= ym ya)) (or (= yo yb) (= ym yb)) (or (not (= yo ya)) (not (= yo yb)) (= ym yo)))))))
(check-sat)
